
Gurobi 10.0.1 (linux64) logging started Sun Nov 26 15:51:54 2023

Set parameter LogFile to value "ArtificialInstance/ExperimentV2/S2T4K2/AdSp/gurobiDoSp89.txt"
Gurobi Optimizer version 10.0.1 build v10.0.1rc0 (linux64)

CPU model: AMD EPYC 7H12 64-Core Processor, instruction set [SSE2|AVX|AVX2]
Thread count: 128 physical cores, 128 logical processors, using up to 32 threads

Academic license 656792 - for non-commercial use only - registered to b.___@student.vu.nl
Optimize a model with 6810 rows, 6489 columns and 24819 nonzeros
Model fingerprint: 0x921eab73
Variable types: 0 continuous, 6489 integer (6489 binary)
Coefficient statistics:
  Matrix range     [1e+00, 1e+00]
  Objective range  [2e+00, 2e+01]
  Bounds range     [1e+00, 1e+00]
  RHS range        [1e+00, 1e+00]
Presolve removed 4969 rows and 4744 columns
Presolve time: 0.09s
Presolved: 1841 rows, 1745 columns, 6893 nonzeros
Variable types: 0 continuous, 1745 integer (1745 binary)

Root relaxation: objective 7.433563e+01, 299 iterations, 0.00 seconds (0.00 work units)

    Nodes    |    Current Node    |     Objective Bounds      |     Work
 Expl Unexpl |  Obj  Depth IntInf | Incumbent    BestBd   Gap | It/Node Time

*    0     0               0      74.3356278   74.33563  0.00%     -    0s

Explored 1 nodes (299 simplex iterations) in 0.12 seconds (0.08 work units)
Thread count was 32 (of 128 available processors)

Solution count 1: 74.3356 

Optimal solution found (tolerance 1.00e-04)
Best objective 7.433562784094e+01, best bound 7.433562784094e+01, gap 0.0000%
